(set-info :status sat)
(declare-const symbol_2061 (_ BitVec 32))
(declare-const symbol_2221 (_ BitVec 32))
(declare-const symbol_2090 (_ BitVec 32))
(declare-const symbol_2025 (_ BitVec 32))
(declare-const symbol_1817 (_ BitVec 32))
(declare-const symbol_1544 (_ BitVec 32))
(declare-const symbol_2149 (_ BitVec 32))
(declare-const symbol_1768 (_ BitVec 32))
(declare-const symbol_1833 (_ BitVec 32))
(declare-const symbol_2071 (_ BitVec 32))
(declare-const symbol_2237 (_ BitVec 32))
(declare-const symbol_1917 (_ BitVec 32))
(declare-const symbol_1628 (_ BitVec 32))
(declare-const symbol_2254 (_ BitVec 32))
(declare-const symbol_2207 (_ BitVec 32))
(declare-const symbol_1788 (_ BitVec 32))
(declare-const symbol_1656 (_ BitVec 32))
(declare-const symbol_1536 (_ BitVec 32))
(declare-const symbol_2268 (_ BitVec 32))
(declare-const symbol_2252 (_ BitVec 32))
(declare-const symbol_2135 (_ BitVec 32))
(declare-const symbol_1875 (_ BitVec 32))
(declare-const symbol_2069 (_ BitVec 32))
(declare-const symbol_1990 (_ BitVec 32))
(declare-const symbol_1907 (_ BitVec 32))
(declare-const symbol_2151 (_ BitVec 32))
(declare-const symbol_2075 (_ BitVec 32))
(declare-const symbol_2133 (_ BitVec 32))
(declare-const symbol_1661 (_ BitVec 32))
(declare-const symbol_2227 (_ BitVec 32))
(declare-const symbol_2035 (_ BitVec 32))
(declare-const symbol_1683 (_ BitVec 32))
(declare-const symbol_1546 (_ BitVec 32))
(declare-const symbol_1691 (_ BitVec 32))
(declare-const symbol_1596 (_ BitVec 32))
(declare-const symbol_2041 (_ BitVec 32))
(declare-const symbol_1766 (_ BitVec 32))
(declare-const symbol_2119 (_ BitVec 32))
(declare-const symbol_2065 (_ BitVec 32))
(declare-const symbol_1792 (_ BitVec 32))
(declare-const symbol_1524 (_ BitVec 32))
(declare-const symbol_2243 (_ BitVec 32))
(declare-const symbol_2121 (_ BitVec 32))
(declare-const symbol_1667 (_ BitVec 32))
(declare-const symbol_1721 (_ BitVec 32))
(declare-const symbol_1717 (_ BitVec 32))
(declare-const symbol_1489 (_ BitVec 32))
(declare-const symbol_2239 (_ BitVec 32))
(declare-const symbol_1564 (_ BitVec 32))
(declare-const symbol_1879 (_ BitVec 32))
(declare-const symbol_2009 (_ BitVec 32))
(declare-const symbol_1568 (_ BitVec 32))
(declare-const symbol_1509 (_ BitVec 32))
(declare-const symbol_2209 (_ BitVec 32))
(declare-const symbol_2094 (_ BitVec 32))
(declare-const symbol_2039 (_ BitVec 32))
(declare-const symbol_1778 (_ BitVec 32))
(declare-const symbol_2049 (_ BitVec 32))
(declare-const symbol_1893 (_ BitVec 32))
(declare-const symbol_1695 (_ BitVec 32))
(declare-const symbol_2229 (_ BitVec 32))
(declare-const symbol_2201 (_ BitVec 32))
(declare-const symbol_1974 (_ BitVec 32))
(declare-const symbol_1968 (_ BitVec 32))
(declare-const symbol_1980 (_ BitVec 32))
(declare-const symbol_1841 (_ BitVec 32))
(declare-const symbol_1728 (_ BitVec 32))
(declare-const symbol_1863 (_ BitVec 32))
(declare-const symbol_1707 (_ BitVec 32))
(declare-const symbol_2170 (_ BitVec 32))
(declare-const symbol_1993 (_ BitVec 32))
(declare-const symbol_1921 (_ BitVec 32))
(declare-const symbol_1713 (_ BitVec 32))
(declare-const symbol_1630 (_ BitVec 32))
(declare-const symbol_1624 (_ BitVec 32))
(declare-const symbol_2102 (_ BitVec 32))
(declare-const symbol_2159 (_ BitVec 32))
(declare-const symbol_2029 (_ BitVec 32))
(declare-const symbol_1586 (_ BitVec 32))
(declare-const symbol_1598 (_ BitVec 32))
(declare-const symbol_1995 (_ BitVec 32))
(declare-const symbol_1650 (_ BitVec 32))
(declare-const symbol_1952 (_ BitVec 32))
(declare-const symbol_1845 (_ BitVec 32))
(declare-const symbol_2088 (_ BitVec 32))
(declare-const symbol_1736 (_ BitVec 32))
(declare-const symbol_1679 (_ BitVec 32))
(declare-const symbol_1556 (_ BitVec 32))
(declare-const symbol_1895 (_ BitVec 32))
(declare-const symbol_1542 (_ BitVec 32))
(declare-const symbol_1566 (_ BitVec 32))
(declare-const symbol_2027 (_ BitVec 32))
(declare-const symbol_1956 (_ BitVec 32))
(declare-const symbol_2086 (_ BitVec 32))
(declare-const symbol_1925 (_ BitVec 32))
(declare-const symbol_1496 (_ BitVec 32))
(declare-const symbol_2225 (_ BitVec 32))
(declare-const symbol_2161 (_ BitVec 32))
(declare-const symbol_2015 (_ BitVec 32))
(declare-const symbol_1869 (_ BitVec 32))
(declare-const symbol_1899 (_ BitVec 32))
(declare-const symbol_1760 (_ BitVec 32))
(declare-const symbol_2174 (_ BitVec 32))
(declare-const symbol_1935 (_ BitVec 32))
(declare-const symbol_1909 (_ BitVec 32))
(declare-const symbol_2223 (_ BitVec 32))
(declare-const symbol_2100 (_ BitVec 32))
(declare-const symbol_1746 (_ BitVec 32))
(declare-const symbol_1675 (_ BitVec 32))
(declare-const symbol_1658 (_ BitVec 32))
(declare-const symbol_1538 (_ BitVec 32))
(declare-const symbol_1786 (_ BitVec 32))
(declare-const symbol_1901 (_ BitVec 32))
(declare-const symbol_1642 (_ BitVec 32))
(declare-const symbol_1859 (_ BitVec 32))
(declare-const symbol_1802 (_ BitVec 32))
(declare-const symbol_1944 (_ BitVec 32))
(declare-const symbol_1815 (_ BitVec 32))
(declare-const symbol_1913 (_ BitVec 32))
(declare-const symbol_1911 (_ BitVec 32))
(declare-const symbol_1610 (_ BitVec 32))
(declare-const symbol_1976 (_ BitVec 32))
(declare-const symbol_1614 (_ BitVec 32))
(declare-const symbol_2082 (_ BitVec 32))
(declare-const symbol_2067 (_ BitVec 32))
(declare-const symbol_1942 (_ BitVec 32))
(declare-const symbol_1982 (_ BitVec 32))
(declare-const symbol_1689 (_ BitVec 32))
(declare-const symbol_1534 (_ BitVec 32))
(declare-const symbol_2182 (_ BitVec 32))
(declare-const symbol_2003 (_ BitVec 32))
(declare-const symbol_1606 (_ BitVec 32))
(declare-const symbol_1530 (_ BitVec 32))
(declare-const symbol_2131 (_ BitVec 32))
(declare-const symbol_2123 (_ BitVec 32))
(declare-const symbol_2163 (_ BitVec 32))
(declare-const symbol_2141 (_ BitVec 32))
(declare-const symbol_1873 (_ BitVec 32))
(declare-const symbol_1636 (_ BitVec 32))
(declare-const symbol_1903 (_ BitVec 32))
(declare-const symbol_1837 (_ BitVec 32))
(declare-const symbol_1521 (_ BitVec 32))
(declare-const symbol_1831 (_ BitVec 32))
(declare-const symbol_1580 (_ BitVec 32))
(declare-const symbol_2247 (_ BitVec 32))
(declare-const symbol_2145 (_ BitVec 32))
(declare-const symbol_2021 (_ BitVec 32))
(declare-const symbol_1654 (_ BitVec 32))
(declare-const symbol_2125 (_ BitVec 32))
(declare-const symbol_1648 (_ BitVec 32))
(declare-const symbol_1933 (_ BitVec 32))
(declare-const symbol_1701 (_ BitVec 32))
(declare-const symbol_1693 (_ BitVec 32))
(declare-const symbol_1622 (_ BitVec 32))
(declare-const symbol_1590 (_ BitVec 32))
(declare-const symbol_2073 (_ BitVec 32))
(declare-const symbol_1800 (_ BitVec 32))
(declare-const symbol_1602 (_ BitVec 32))
(declare-const symbol_1519 (_ BitVec 32))
(declare-const symbol_1738 (_ BitVec 32))
(declare-const symbol_1715 (_ BitVec 32))
(declare-const symbol_1584 (_ BitVec 32))
(declare-const symbol_2217 (_ BitVec 32))
(declare-const symbol_1505 (_ BitVec 32))
(declare-const symbol_2231 (_ BitVec 32))
(declare-const symbol_1626 (_ BitVec 32))
(declare-const symbol_1552 (_ BitVec 32))
(declare-const symbol_2168 (_ BitVec 32))
(declare-const symbol_2272 (_ BitVec 32))
(declare-const symbol_2107 (_ BitVec 32))
(declare-const symbol_2053 (_ BitVec 32))
(declare-const symbol_1665 (_ BitVec 32))
(declare-const symbol_1871 (_ BitVec 32))
(declare-const symbol_1576 (_ BitVec 32))
(declare-const symbol_1849 (_ BitVec 32))
(declare-const symbol_1774 (_ BitVec 32))
(declare-const symbol_1705 (_ BitVec 32))
(declare-const symbol_2211 (_ BitVec 32))
(declare-const symbol_1960 (_ BitVec 32))
(declare-const symbol_1532 (_ BitVec 32))
(declare-const symbol_1515 (_ BitVec 32))
(declare-const symbol_2055 (_ BitVec 32))
(declare-const symbol_2264 (_ BitVec 32))
(declare-const symbol_1491 (_ BitVec 32))
(declare-const symbol_1612 (_ BitVec 32))
(declare-const symbol_2051 (_ BitVec 32))
(declare-const symbol_1652 (_ BitVec 32))
(declare-const symbol_1806 (_ BitVec 32))
(declare-const symbol_1762 (_ BitVec 32))
(declare-const symbol_2197 (_ BitVec 32))
(declare-const symbol_2001 (_ BitVec 32))
(declare-const symbol_1750 (_ BitVec 32))
(declare-const symbol_2176 (_ BitVec 32))
(declare-const symbol_2057 (_ BitVec 32))
(declare-const symbol_1794 (_ BitVec 32))
(declare-const symbol_1813 (_ BitVec 32))
(declare-const symbol_2193 (_ BitVec 32))
(declare-const symbol_1493 (_ BitVec 32))
(declare-const symbol_2031 (_ BitVec 32))
(declare-const symbol_1970 (_ BitVec 32))
(declare-const symbol_1796 (_ BitVec 32))
(declare-const symbol_1604 (_ BitVec 32))
(declare-const symbol_1677 (_ BitVec 32))
(declare-const symbol_2153 (_ BitVec 32))
(declare-const symbol_2033 (_ BitVec 32))
(declare-const symbol_1988 (_ BitVec 32))
(declare-const symbol_1986 (_ BitVec 32))
(declare-const symbol_1966 (_ BitVec 32))
(declare-const symbol_1929 (_ BitVec 32))
(declare-const symbol_1497 (_ BitVec 32))
(declare-const symbol_1885 (_ BitVec 32))
(declare-const symbol_1851 (_ BitVec 32))
(declare-const symbol_1646 (_ BitVec 32))
(declare-const symbol_2199 (_ BitVec 32))
(declare-const symbol_2139 (_ BitVec 32))
(declare-const symbol_1972 (_ BitVec 32))
(declare-const symbol_1558 (_ BitVec 32))
(declare-const symbol_1984 (_ BitVec 32))
(declare-const symbol_1501 (_ BitVec 32))
(declare-const symbol_2233 (_ BitVec 32))
(declare-const symbol_2059 (_ BitVec 32))
(declare-const symbol_1883 (_ BitVec 32))
(declare-const symbol_1742 (_ BitVec 32))
(declare-const symbol_1798 (_ BitVec 32))
(declare-const symbol_1499 (_ BitVec 32))
(declare-const symbol_1835 (_ BitVec 32))
(declare-const symbol_1659 (_ BitVec 32))
(declare-const symbol_1638 (_ BitVec 32))
(declare-const symbol_2147 (_ BitVec 32))
(declare-const symbol_2137 (_ BitVec 32))
(declare-const symbol_1865 (_ BitVec 32))
(declare-const symbol_1550 (_ BitVec 32))
(declare-const symbol_2190 (_ BitVec 32))
(declare-const symbol_1560 (_ BitVec 32))
(declare-const symbol_1821 (_ BitVec 32))
(declare-const symbol_1570 (_ BitVec 32))
(declare-const symbol_1513 (_ BitVec 32))
(declare-const symbol_2266 (_ BitVec 32))
(declare-const symbol_2188 (_ BitVec 32))
(declare-const symbol_2092 (_ BitVec 32))
(declare-const symbol_2043 (_ BitVec 32))
(declare-const symbol_1915 (_ BitVec 32))
(declare-const symbol_2117 (_ BitVec 32))
(declare-const symbol_2063 (_ BitVec 32))
(declare-const symbol_2113 (_ BitVec 32))
(declare-const symbol_1853 (_ BitVec 32))
(declare-const symbol_1940 (_ BitVec 32))
(declare-const symbol_2023 (_ BitVec 32))
(declare-const symbol_1770 (_ BitVec 32))
(declare-const symbol_1808 (_ BitVec 32))
(declare-const symbol_1526 (_ BitVec 32))
(declare-const symbol_2172 (_ BitVec 32))
(declare-const symbol_1997 (_ BitVec 32))
(declare-const symbol_1847 (_ BitVec 32))
(declare-const symbol_1618 (_ BitVec 32))
(declare-const symbol_1608 (_ BitVec 32))
(declare-const symbol_2155 (_ BitVec 32))
(declare-const symbol_1958 (_ BitVec 32))
(declare-const symbol_1811 (_ BitVec 32))
(declare-const symbol_2270 (_ BitVec 32))
(declare-const symbol_2012 (_ BitVec 32))
(declare-const symbol_1790 (_ BitVec 32))
(declare-const symbol_1554 (_ BitVec 32))
(declare-const symbol_2045 (_ BitVec 32))
(declare-const symbol_1616 (_ BitVec 32))
(declare-const symbol_1582 (_ BitVec 32))
(declare-const symbol_2256 (_ BitVec 32))
(declare-const symbol_1732 (_ BitVec 32))
(declare-const symbol_1734 (_ BitVec 32))
(declare-const symbol_1671 (_ BitVec 32))
(declare-const symbol_2129 (_ BitVec 32))
(declare-const symbol_1681 (_ BitVec 32))
(declare-const symbol_2047 (_ BitVec 32))
(declare-const symbol_2250 (_ BitVec 32))
(declare-const symbol_2235 (_ BitVec 32))
(declare-const symbol_1825 (_ BitVec 32))
(declare-const symbol_2104 (_ BitVec 32))
(declare-const symbol_2215 (_ BitVec 32))
(declare-const symbol_1999 (_ BitVec 32))
(declare-const symbol_1703 (_ BitVec 32))
(declare-const symbol_2007 (_ BitVec 32))
(declare-const symbol_1673 (_ BitVec 32))
(declare-const symbol_2098 (_ BitVec 32))
(declare-const symbol_1819 (_ BitVec 32))
(declare-const symbol_1823 (_ BitVec 32))
(declare-const symbol_1784 (_ BitVec 32))
(declare-const symbol_1829 (_ BitVec 32))
(declare-const symbol_1719 (_ BitVec 32))
(declare-const symbol_1730 (_ BitVec 32))
(declare-const symbol_1687 (_ BitVec 32))
(declare-const symbol_1855 (_ BitVec 32))
(declare-const symbol_2157 (_ BitVec 32))
(declare-const symbol_1923 (_ BitVec 32))
(declare-const symbol_2195 (_ BitVec 32))
(declare-const symbol_1723 (_ BitVec 32))
(declare-const symbol_1709 (_ BitVec 32))
(declare-const symbol_1699 (_ BitVec 32))
(declare-const symbol_2184 (_ BitVec 32))
(declare-const symbol_2115 (_ BitVec 32))
(declare-const symbol_1905 (_ BitVec 32))
(declare-const symbol_1954 (_ BitVec 32))
(declare-const symbol_2191 (_ BitVec 32))
(declare-const symbol_1964 (_ BitVec 32))
(declare-const symbol_1776 (_ BitVec 32))
(declare-const symbol_2178 (_ BitVec 32))
(declare-const symbol_1843 (_ BitVec 32))
(declare-const symbol_1889 (_ BitVec 32))
(declare-const symbol_1754 (_ BitVec 32))
(declare-const symbol_2262 (_ BitVec 32))
(declare-const symbol_1931 (_ BitVec 32))
(declare-const symbol_1782 (_ BitVec 32))
(declare-const symbol_1919 (_ BitVec 32))
(declare-const symbol_1507 (_ BitVec 32))
(declare-const symbol_1574 (_ BitVec 32))
(declare-const symbol_2080 (_ BitVec 32))
(declare-const symbol_2019 (_ BitVec 32))
(declare-const symbol_1857 (_ BitVec 32))
(declare-const symbol_1725 (_ BitVec 32))
(declare-const symbol_1697 (_ BitVec 32))
(declare-const symbol_1827 (_ BitVec 32))
(declare-const symbol_1780 (_ BitVec 32))
(declare-const symbol_1540 (_ BitVec 32))
(declare-const symbol_2143 (_ BitVec 32))
(declare-const symbol_1758 (_ BitVec 32))
(declare-const symbol_1748 (_ BitVec 32))
(declare-const symbol_2111 (_ BitVec 32))
(declare-const symbol_1640 (_ BitVec 32))
(declare-const symbol_1948 (_ BitVec 32))
(declare-const symbol_1804 (_ BitVec 32))
(declare-const symbol_1962 (_ BitVec 32))
(declare-const symbol_2084 (_ BitVec 32))
(declare-const symbol_1600 (_ BitVec 32))
(declare-const symbol_2245 (_ BitVec 32))
(declare-const symbol_2005 (_ BitVec 32))
(declare-const symbol_1740 (_ BitVec 32))
(declare-const symbol_1644 (_ BitVec 32))
(declare-const symbol_1511 (_ BitVec 32))
(declare-const symbol_1503 (_ BitVec 32))
(declare-const symbol_2011 (_ BitVec 32))
(declare-const symbol_1663 (_ BitVec 32))
(declare-const symbol_1523 (_ BitVec 32))
(declare-const symbol_2203 (_ BitVec 32))
(declare-const symbol_1897 (_ BitVec 32))
(declare-const symbol_1634 (_ BitVec 32))
(declare-const symbol_1562 (_ BitVec 32))
(declare-const symbol_2205 (_ BitVec 32))
(declare-const symbol_2186 (_ BitVec 32))
(declare-const symbol_1927 (_ BitVec 32))
(declare-const symbol_1891 (_ BitVec 32))
(declare-const symbol_1867 (_ BitVec 32))
(declare-const symbol_1669 (_ BitVec 32))
(declare-const symbol_1517 (_ BitVec 32))
(declare-const symbol_1592 (_ BitVec 32))
(declare-const symbol_1877 (_ BitVec 32))
(declare-const symbol_1946 (_ BitVec 32))
(declare-const symbol_1711 (_ BitVec 32))
(declare-const symbol_1685 (_ BitVec 32))
(declare-const symbol_1744 (_ BitVec 32))
(declare-const symbol_1620 (_ BitVec 32))
(declare-const symbol_1594 (_ BitVec 32))
(declare-const symbol_2180 (_ BitVec 32))
(declare-const symbol_1978 (_ BitVec 32))
(declare-const symbol_1764 (_ BitVec 32))
(declare-const symbol_1588 (_ BitVec 32))
(declare-const symbol_2037 (_ BitVec 32))
(declare-const symbol_1839 (_ BitVec 32))
(declare-const symbol_1861 (_ BitVec 32))
(declare-const symbol_2109 (_ BitVec 32))
(declare-const symbol_1756 (_ BitVec 32))
(declare-const symbol_2260 (_ BitVec 32))
(declare-const symbol_2127 (_ BitVec 32))
(declare-const symbol_1772 (_ BitVec 32))
(declare-const symbol_1938 (_ BitVec 32))
(declare-const symbol_2077 (_ BitVec 32))
(declare-const symbol_1632 (_ BitVec 32))
(declare-const symbol_2079 (_ BitVec 32))
(declare-const symbol_1752 (_ BitVec 32))
(declare-const symbol_1528 (_ BitVec 32))
(declare-const symbol_1578 (_ BitVec 32))
(declare-const symbol_1572 (_ BitVec 32))
(declare-const symbol_1548 (_ BitVec 32))
(declare-const symbol_2241 (_ BitVec 32))
(declare-const symbol_2017 (_ BitVec 32))
(declare-const symbol_1887 (_ BitVec 32))
(declare-const symbol_1881 (_ BitVec 32))
(declare-const symbol_2166 (_ BitVec 32))
(declare-const symbol_2096 (_ BitVec 32))
(declare-const symbol_2258 (_ BitVec 32))
(declare-const symbol_1950 (_ BitVec 32))
(declare-const symbol_2219 (_ BitVec 32))
(declare-const symbol_2213 (_ BitVec 32))
(assert (not (= symbol_2272 (_ bv14 32))))
(assert (not (not (= symbol_2272 (_ bv15 32)))))
(assert (not (not (= symbol_2270 (_ bv15 32)))))
(assert (not (not (= symbol_2268 (_ bv15 32)))))
(assert (not (not (= symbol_2266 (_ bv15 32)))))
(assert (not (not (= symbol_2264 (_ bv15 32)))))
(assert (not (not (= symbol_2262 (_ bv15 32)))))
(assert (not (not (= symbol_2260 (_ bv15 32)))))
(assert (not (not (= symbol_2258 (_ bv15 32)))))
(assert (not (not (= symbol_2256 (_ bv15 32)))))
(assert (not (not (= symbol_2254 (_ bv15 32)))))
(assert (not (not (= symbol_2252 (_ bv15 32)))))
(assert (not (not (= symbol_2250 (_ bv15 32)))))
(assert (not (not (= symbol_2247 (_ bv15 32)))))
(assert (not (not (= symbol_2245 (_ bv15 32)))))
(assert (not (not (= symbol_2243 (_ bv15 32)))))
(assert (not (not (= symbol_2241 (_ bv15 32)))))
(assert (not (not (= symbol_2239 (_ bv15 32)))))
(assert (not (not (= symbol_2237 (_ bv15 32)))))
(assert (not (not (= symbol_2235 (_ bv15 32)))))
(assert (not (not (= symbol_2233 (_ bv15 32)))))
(assert (not (not (= symbol_2231 (_ bv15 32)))))
(assert (not (not (= symbol_2229 (_ bv15 32)))))
(assert (not (not (= symbol_2227 (_ bv15 32)))))
(assert (not (not (= symbol_2225 (_ bv15 32)))))
(assert (not (not (= symbol_2223 (_ bv15 32)))))
(assert (not (not (= symbol_2221 (_ bv15 32)))))
(assert (not (not (= symbol_2219 (_ bv15 32)))))
(assert (not (not (= symbol_2217 (_ bv15 32)))))
(assert (not (not (= symbol_2215 (_ bv15 32)))))
(assert (not (not (= symbol_2213 (_ bv15 32)))))
(assert (not (not (= symbol_2211 (_ bv15 32)))))
(assert (not (not (= symbol_2209 (_ bv15 32)))))
(assert (not (not (= symbol_2207 (_ bv15 32)))))
(assert (not (not (= symbol_2205 (_ bv15 32)))))
(assert (not (not (= symbol_2203 (_ bv15 32)))))
(assert (not (not (= symbol_2201 (_ bv15 32)))))
(assert (not (not (= symbol_2199 (_ bv15 32)))))
(assert (not (not (= symbol_2197 (_ bv15 32)))))
(assert (not (not (= symbol_2195 (_ bv15 32)))))
(assert (not (not (= symbol_2193 (_ bv15 32)))))
(assert (not (not (= symbol_2191 (_ bv15 32)))))
(assert (not (not (= symbol_2190 (_ bv15 32)))))
(assert (not (not (= symbol_2188 (_ bv15 32)))))
(assert (not (not (= symbol_2186 (_ bv15 32)))))
(assert (not (not (= symbol_2184 (_ bv15 32)))))
(assert (not (not (= symbol_2182 (_ bv15 32)))))
(assert (not (not (= symbol_2180 (_ bv15 32)))))
(assert (not (not (= symbol_2178 (_ bv15 32)))))
(assert (not (not (= symbol_2176 (_ bv15 32)))))
(assert (not (not (= symbol_2174 (_ bv15 32)))))
(assert (not (not (= symbol_2172 (_ bv15 32)))))
(assert (not (not (= symbol_2170 (_ bv15 32)))))
(assert (not (not (= symbol_2168 (_ bv15 32)))))
(assert (not (not (= symbol_2166 (_ bv15 32)))))
(assert (not (not (= symbol_2163 (_ bv15 32)))))
(assert (not (not (= symbol_2161 (_ bv15 32)))))
(assert (not (not (= symbol_2159 (_ bv15 32)))))
(assert (not (not (= symbol_2157 (_ bv15 32)))))
(assert (not (not (= symbol_2155 (_ bv15 32)))))
(assert (not (not (= symbol_2153 (_ bv15 32)))))
(assert (not (not (= symbol_2151 (_ bv15 32)))))
(assert (not (not (= symbol_2149 (_ bv15 32)))))
(assert (not (not (= symbol_2147 (_ bv15 32)))))
(assert (not (not (= symbol_2145 (_ bv15 32)))))
(assert (not (not (= symbol_2143 (_ bv15 32)))))
(assert (not (not (= symbol_2141 (_ bv15 32)))))
(assert (not (not (= symbol_2139 (_ bv15 32)))))
(assert (not (not (= symbol_2137 (_ bv15 32)))))
(assert (not (not (= symbol_2135 (_ bv15 32)))))
(assert (not (not (= symbol_2133 (_ bv15 32)))))
(assert (not (not (= symbol_2131 (_ bv15 32)))))
(assert (not (not (= symbol_2129 (_ bv15 32)))))
(assert (not (not (= symbol_2127 (_ bv15 32)))))
(assert (not (not (= symbol_2125 (_ bv15 32)))))
(assert (not (not (= symbol_2123 (_ bv15 32)))))
(assert (not (not (= symbol_2121 (_ bv15 32)))))
(assert (not (not (= symbol_2119 (_ bv15 32)))))
(assert (not (not (= symbol_2117 (_ bv15 32)))))
(assert (not (not (= symbol_2115 (_ bv15 32)))))
(assert (not (not (= symbol_2113 (_ bv15 32)))))
(assert (not (not (= symbol_2111 (_ bv15 32)))))
(assert (not (not (= symbol_2109 (_ bv15 32)))))
(assert (not (not (= symbol_2107 (_ bv15 32)))))
(assert (not (not (= symbol_2104 (_ bv15 32)))))
(assert (not (not (= symbol_2102 (_ bv15 32)))))
(assert (not (not (= symbol_2100 (_ bv15 32)))))
(assert (not (not (= symbol_2098 (_ bv15 32)))))
(assert (not (not (= symbol_2096 (_ bv15 32)))))
(assert (not (not (= symbol_2094 (_ bv15 32)))))
(assert (not (not (= symbol_2092 (_ bv15 32)))))
(assert (not (not (= symbol_2090 (_ bv15 32)))))
(assert (not (not (= symbol_2088 (_ bv15 32)))))
(assert (not (not (= symbol_2086 (_ bv15 32)))))
(assert (not (not (= symbol_2084 (_ bv15 32)))))
(assert (not (not (= symbol_2082 (_ bv15 32)))))
(assert (not (not (= symbol_2080 (_ bv15 32)))))
(assert (not (not (= symbol_2079 (_ bv15 32)))))
(assert (not (not (= symbol_2077 (_ bv15 32)))))
(assert (not (not (= symbol_2075 (_ bv15 32)))))
(assert (not (not (= symbol_2073 (_ bv15 32)))))
(assert (not (not (= symbol_2071 (_ bv15 32)))))
(assert (not (not (= symbol_2069 (_ bv15 32)))))
(assert (not (not (= symbol_2067 (_ bv15 32)))))
(assert (not (not (= symbol_2065 (_ bv15 32)))))
(assert (not (not (= symbol_2063 (_ bv15 32)))))
(assert (not (not (= symbol_2061 (_ bv15 32)))))
(assert (not (not (= symbol_2059 (_ bv15 32)))))
(assert (not (not (= symbol_2057 (_ bv15 32)))))
(assert (not (not (= symbol_2055 (_ bv15 32)))))
(assert (not (not (= symbol_2053 (_ bv15 32)))))
(assert (not (not (= symbol_2051 (_ bv15 32)))))
(assert (not (not (= symbol_2049 (_ bv15 32)))))
(assert (not (not (= symbol_2047 (_ bv15 32)))))
(assert (not (not (= symbol_2045 (_ bv15 32)))))
(assert (not (not (= symbol_2043 (_ bv15 32)))))
(assert (not (not (= symbol_2041 (_ bv15 32)))))
(assert (not (not (= symbol_2039 (_ bv15 32)))))
(assert (not (not (= symbol_2037 (_ bv15 32)))))
(assert (not (not (= symbol_2035 (_ bv15 32)))))
(assert (not (not (= symbol_2033 (_ bv15 32)))))
(assert (not (not (= symbol_2031 (_ bv15 32)))))
(assert (not (not (= symbol_2029 (_ bv15 32)))))
(assert (not (not (= symbol_2027 (_ bv15 32)))))
(assert (not (not (= symbol_2025 (_ bv15 32)))))
(assert (not (not (= symbol_2023 (_ bv15 32)))))
(assert (not (not (= symbol_2021 (_ bv15 32)))))
(assert (not (not (= symbol_2019 (_ bv15 32)))))
(assert (not (not (= symbol_2017 (_ bv15 32)))))
(assert (not (not (= symbol_2015 (_ bv15 32)))))
(assert (not (not (= symbol_2012 (_ bv15 32)))))
(assert (not (not (= symbol_2011 (_ bv15 32)))))
(assert (not (not (= symbol_2009 (_ bv15 32)))))
(assert (not (not (= symbol_2007 (_ bv15 32)))))
(assert (not (not (= symbol_2005 (_ bv15 32)))))
(assert (not (not (= symbol_2003 (_ bv15 32)))))
(assert (not (not (= symbol_2001 (_ bv15 32)))))
(assert (not (not (= symbol_1999 (_ bv15 32)))))
(assert (not (not (= symbol_1997 (_ bv15 32)))))
(assert (not (not (= symbol_1995 (_ bv15 32)))))
(assert (not (not (= symbol_1993 (_ bv15 32)))))
(assert (not (not (= symbol_1990 (_ bv15 32)))))
(assert (not (not (= symbol_1988 (_ bv15 32)))))
(assert (not (not (= symbol_1986 (_ bv15 32)))))
(assert (not (not (= symbol_1984 (_ bv15 32)))))
(assert (not (not (= symbol_1982 (_ bv15 32)))))
(assert (not (not (= symbol_1980 (_ bv15 32)))))
(assert (not (not (= symbol_1978 (_ bv15 32)))))
(assert (not (not (= symbol_1976 (_ bv15 32)))))
(assert (not (not (= symbol_1974 (_ bv15 32)))))
(assert (not (not (= symbol_1972 (_ bv15 32)))))
(assert (not (not (= symbol_1970 (_ bv15 32)))))
(assert (not (not (= symbol_1968 (_ bv15 32)))))
(assert (not (not (= symbol_1966 (_ bv15 32)))))
(assert (not (not (= symbol_1964 (_ bv15 32)))))
(assert (not (not (= symbol_1962 (_ bv15 32)))))
(assert (not (not (= symbol_1960 (_ bv15 32)))))
(assert (not (not (= symbol_1958 (_ bv15 32)))))
(assert (not (not (= symbol_1956 (_ bv15 32)))))
(assert (not (not (= symbol_1954 (_ bv15 32)))))
(assert (not (not (= symbol_1952 (_ bv15 32)))))
(assert (not (not (= symbol_1950 (_ bv15 32)))))
(assert (not (not (= symbol_1948 (_ bv15 32)))))
(assert (not (not (= symbol_1946 (_ bv15 32)))))
(assert (not (not (= symbol_1944 (_ bv15 32)))))
(assert (not (not (= symbol_1942 (_ bv15 32)))))
(assert (not (not (= symbol_1940 (_ bv15 32)))))
(assert (not (not (= symbol_1938 (_ bv15 32)))))
(assert (not (not (= symbol_1935 (_ bv15 32)))))
(assert (not (not (= symbol_1933 (_ bv15 32)))))
(assert (not (not (= symbol_1931 (_ bv15 32)))))
(assert (not (not (= symbol_1929 (_ bv15 32)))))
(assert (not (not (= symbol_1927 (_ bv15 32)))))
(assert (not (not (= symbol_1925 (_ bv15 32)))))
(assert (not (not (= symbol_1923 (_ bv15 32)))))
(assert (not (not (= symbol_1921 (_ bv15 32)))))
(assert (not (not (= symbol_1919 (_ bv15 32)))))
(assert (not (not (= symbol_1917 (_ bv15 32)))))
(assert (not (not (= symbol_1915 (_ bv15 32)))))
(assert (not (not (= symbol_1913 (_ bv15 32)))))
(assert (not (not (= symbol_1911 (_ bv15 32)))))
(assert (not (not (= symbol_1909 (_ bv15 32)))))
(assert (not (not (= symbol_1907 (_ bv15 32)))))
(assert (not (not (= symbol_1905 (_ bv15 32)))))
(assert (not (not (= symbol_1903 (_ bv15 32)))))
(assert (not (not (= symbol_1901 (_ bv15 32)))))
(assert (not (not (= symbol_1899 (_ bv15 32)))))
(assert (not (not (= symbol_1897 (_ bv15 32)))))
(assert (not (not (= symbol_1895 (_ bv15 32)))))
(assert (not (not (= symbol_1893 (_ bv15 32)))))
(assert (not (not (= symbol_1891 (_ bv15 32)))))
(assert (not (not (= symbol_1889 (_ bv15 32)))))
(assert (not (not (= symbol_1887 (_ bv15 32)))))
(assert (not (not (= symbol_1885 (_ bv15 32)))))
(assert (not (not (= symbol_1883 (_ bv15 32)))))
(assert (not (not (= symbol_1881 (_ bv15 32)))))
(assert (not (not (= symbol_1879 (_ bv15 32)))))
(assert (not (not (= symbol_1877 (_ bv15 32)))))
(assert (not (not (= symbol_1875 (_ bv15 32)))))
(assert (not (not (= symbol_1873 (_ bv15 32)))))
(assert (not (not (= symbol_1871 (_ bv15 32)))))
(assert (not (not (= symbol_1869 (_ bv15 32)))))
(assert (not (not (= symbol_1867 (_ bv15 32)))))
(assert (not (not (= symbol_1865 (_ bv15 32)))))
(assert (not (not (= symbol_1863 (_ bv15 32)))))
(assert (not (not (= symbol_1861 (_ bv15 32)))))
(assert (not (not (= symbol_1859 (_ bv15 32)))))
(assert (not (not (= symbol_1857 (_ bv15 32)))))
(assert (not (not (= symbol_1855 (_ bv15 32)))))
(assert (not (not (= symbol_1853 (_ bv15 32)))))
(assert (not (not (= symbol_1851 (_ bv15 32)))))
(assert (not (not (= symbol_1849 (_ bv15 32)))))
(assert (not (not (= symbol_1847 (_ bv15 32)))))
(assert (not (not (= symbol_1845 (_ bv15 32)))))
(assert (not (not (= symbol_1843 (_ bv15 32)))))
(assert (not (not (= symbol_1841 (_ bv15 32)))))
(assert (not (not (= symbol_1839 (_ bv15 32)))))
(assert (not (not (= symbol_1837 (_ bv15 32)))))
(assert (not (not (= symbol_1835 (_ bv15 32)))))
(assert (not (not (= symbol_1833 (_ bv15 32)))))
(assert (not (not (= symbol_1831 (_ bv15 32)))))
(assert (not (not (= symbol_1829 (_ bv15 32)))))
(assert (not (not (= symbol_1827 (_ bv15 32)))))
(assert (not (not (= symbol_1825 (_ bv15 32)))))
(assert (not (not (= symbol_1823 (_ bv15 32)))))
(assert (not (not (= symbol_1821 (_ bv15 32)))))
(assert (not (not (= symbol_1819 (_ bv15 32)))))
(assert (not (not (= symbol_1817 (_ bv15 32)))))
(assert (not (not (= symbol_1815 (_ bv15 32)))))
(assert (not (not (= symbol_1813 (_ bv15 32)))))
(assert (not (not (= symbol_1811 (_ bv15 32)))))
(assert (not (not (= symbol_1808 (_ bv15 32)))))
(assert (not (not (= symbol_1806 (_ bv15 32)))))
(assert (not (not (= symbol_1804 (_ bv15 32)))))
(assert (not (not (= symbol_1802 (_ bv15 32)))))
(assert (not (not (= symbol_1800 (_ bv15 32)))))
(assert (not (not (= symbol_1798 (_ bv15 32)))))
(assert (not (not (= symbol_1796 (_ bv15 32)))))
(assert (not (not (= symbol_1794 (_ bv15 32)))))
(assert (not (not (= symbol_1792 (_ bv15 32)))))
(assert (not (not (= symbol_1790 (_ bv15 32)))))
(assert (not (not (= symbol_1788 (_ bv15 32)))))
(assert (not (not (= symbol_1786 (_ bv15 32)))))
(assert (not (not (= symbol_1784 (_ bv15 32)))))
(assert (not (not (= symbol_1782 (_ bv15 32)))))
(assert (not (not (= symbol_1780 (_ bv15 32)))))
(assert (not (not (= symbol_1778 (_ bv15 32)))))
(assert (not (not (= symbol_1776 (_ bv15 32)))))
(assert (not (not (= symbol_1774 (_ bv15 32)))))
(assert (not (not (= symbol_1772 (_ bv15 32)))))
(assert (not (not (= symbol_1770 (_ bv15 32)))))
(assert (not (not (= symbol_1768 (_ bv15 32)))))
(assert (not (not (= symbol_1766 (_ bv15 32)))))
(assert (not (not (= symbol_1764 (_ bv15 32)))))
(assert (not (not (= symbol_1762 (_ bv15 32)))))
(assert (not (not (= symbol_1760 (_ bv15 32)))))
(assert (not (not (= symbol_1758 (_ bv15 32)))))
(assert (not (not (= symbol_1756 (_ bv15 32)))))
(assert (not (not (= symbol_1754 (_ bv15 32)))))
(assert (not (not (= symbol_1752 (_ bv15 32)))))
(assert (not (not (= symbol_1750 (_ bv15 32)))))
(assert (not (not (= symbol_1748 (_ bv15 32)))))
(assert (not (not (= symbol_1746 (_ bv15 32)))))
(assert (not (not (= symbol_1744 (_ bv15 32)))))
(assert (not (not (= symbol_1742 (_ bv15 32)))))
(assert (not (not (= symbol_1740 (_ bv15 32)))))
(assert (not (not (= symbol_1738 (_ bv15 32)))))
(assert (not (not (= symbol_1736 (_ bv15 32)))))
(assert (not (not (= symbol_1734 (_ bv15 32)))))
(assert (not (not (= symbol_1732 (_ bv15 32)))))
(assert (not (not (= symbol_1730 (_ bv15 32)))))
(assert (not (not (= symbol_1728 (_ bv15 32)))))
(assert (not (not (= symbol_1725 (_ bv15 32)))))
(assert (not (not (= symbol_1723 (_ bv15 32)))))
(assert (not (not (= symbol_1721 (_ bv15 32)))))
(assert (not (not (= symbol_1719 (_ bv15 32)))))
(assert (not (not (= symbol_1717 (_ bv15 32)))))
(assert (not (not (= symbol_1715 (_ bv15 32)))))
(assert (not (not (= symbol_1713 (_ bv15 32)))))
(assert (not (not (= symbol_1711 (_ bv15 32)))))
(assert (not (not (= symbol_1709 (_ bv15 32)))))
(assert (not (not (= symbol_1707 (_ bv15 32)))))
(assert (not (not (= symbol_1705 (_ bv15 32)))))
(assert (not (not (= symbol_1703 (_ bv15 32)))))
(assert (not (not (= symbol_1701 (_ bv15 32)))))
(assert (not (not (= symbol_1699 (_ bv15 32)))))
(assert (not (not (= symbol_1697 (_ bv15 32)))))
(assert (not (not (= symbol_1695 (_ bv15 32)))))
(assert (not (not (= symbol_1693 (_ bv15 32)))))
(assert (not (not (= symbol_1691 (_ bv15 32)))))
(assert (not (not (= symbol_1689 (_ bv15 32)))))
(assert (not (not (= symbol_1687 (_ bv15 32)))))
(assert (not (not (= symbol_1685 (_ bv15 32)))))
(assert (not (not (= symbol_1683 (_ bv15 32)))))
(assert (not (not (= symbol_1681 (_ bv15 32)))))
(assert (not (not (= symbol_1679 (_ bv15 32)))))
(assert (not (not (= symbol_1677 (_ bv15 32)))))
(assert (not (not (= symbol_1675 (_ bv15 32)))))
(assert (not (not (= symbol_1673 (_ bv15 32)))))
(assert (not (not (= symbol_1671 (_ bv15 32)))))
(assert (not (not (= symbol_1669 (_ bv15 32)))))
(assert (not (not (= symbol_1667 (_ bv15 32)))))
(assert (not (not (= symbol_1665 (_ bv15 32)))))
(assert (not (not (= symbol_1663 (_ bv15 32)))))
(assert (not (not (= symbol_1661 (_ bv15 32)))))
(assert (not (not (= symbol_1659 (_ bv15 32)))))
(assert (not (not (= symbol_1658 (_ bv15 32)))))
(assert (not (not (= symbol_1656 (_ bv15 32)))))
(assert (not (not (= symbol_1654 (_ bv15 32)))))
(assert (not (not (= symbol_1652 (_ bv15 32)))))
(assert (not (not (= symbol_1650 (_ bv15 32)))))
(assert (not (not (= symbol_1648 (_ bv15 32)))))
(assert (not (not (= symbol_1646 (_ bv15 32)))))
(assert (not (not (= symbol_1644 (_ bv15 32)))))
(assert (not (not (= symbol_1642 (_ bv15 32)))))
(assert (not (not (= symbol_1640 (_ bv15 32)))))
(assert (not (not (= symbol_1638 (_ bv15 32)))))
(assert (not (not (= symbol_1636 (_ bv15 32)))))
(assert (not (not (= symbol_1634 (_ bv15 32)))))
(assert (not (not (= symbol_1632 (_ bv15 32)))))
(assert (not (not (= symbol_1630 (_ bv15 32)))))
(assert (not (not (= symbol_1628 (_ bv15 32)))))
(assert (not (not (= symbol_1626 (_ bv15 32)))))
(assert (not (not (= symbol_1624 (_ bv15 32)))))
(assert (not (not (= symbol_1622 (_ bv15 32)))))
(assert (not (not (= symbol_1620 (_ bv15 32)))))
(assert (not (not (= symbol_1618 (_ bv15 32)))))
(assert (not (not (= symbol_1616 (_ bv15 32)))))
(assert (not (not (= symbol_1614 (_ bv15 32)))))
(assert (not (not (= symbol_1612 (_ bv15 32)))))
(assert (not (not (= symbol_1610 (_ bv15 32)))))
(assert (not (not (= symbol_1608 (_ bv15 32)))))
(assert (not (not (= symbol_1606 (_ bv15 32)))))
(assert (not (not (= symbol_1604 (_ bv15 32)))))
(assert (not (not (= symbol_1602 (_ bv15 32)))))
(assert (not (not (= symbol_1600 (_ bv15 32)))))
(assert (not (not (= symbol_1598 (_ bv15 32)))))
(assert (not (not (= symbol_1596 (_ bv15 32)))))
(assert (not (not (= symbol_1594 (_ bv15 32)))))
(assert (not (not (= symbol_1592 (_ bv15 32)))))
(assert (not (not (= symbol_1590 (_ bv15 32)))))
(assert (not (not (= symbol_1588 (_ bv15 32)))))
(assert (not (not (= symbol_1586 (_ bv15 32)))))
(assert (not (not (= symbol_1584 (_ bv15 32)))))
(assert (not (not (= symbol_1582 (_ bv15 32)))))
(assert (not (not (= symbol_1580 (_ bv15 32)))))
(assert (not (not (= symbol_1578 (_ bv15 32)))))
(assert (not (not (= symbol_1576 (_ bv15 32)))))
(assert (not (not (= symbol_1574 (_ bv15 32)))))
(assert (not (not (= symbol_1572 (_ bv15 32)))))
(assert (not (not (= symbol_1570 (_ bv15 32)))))
(assert (not (not (= symbol_1568 (_ bv15 32)))))
(assert (not (not (= symbol_1566 (_ bv15 32)))))
(assert (not (not (= symbol_1564 (_ bv15 32)))))
(assert (not (not (= symbol_1562 (_ bv15 32)))))
(assert (not (not (= symbol_1560 (_ bv15 32)))))
(assert (not (not (= symbol_1558 (_ bv15 32)))))
(assert (not (not (= symbol_1556 (_ bv15 32)))))
(assert (not (not (= symbol_1554 (_ bv15 32)))))
(assert (not (not (= symbol_1552 (_ bv15 32)))))
(assert (not (not (= symbol_1550 (_ bv15 32)))))
(assert (not (not (= symbol_1548 (_ bv15 32)))))
(assert (not (not (= symbol_1546 (_ bv15 32)))))
(assert (not (not (= symbol_1544 (_ bv15 32)))))
(assert (not (not (= symbol_1542 (_ bv15 32)))))
(assert (not (not (= symbol_1540 (_ bv15 32)))))
(assert (not (not (= symbol_1538 (_ bv15 32)))))
(assert (not (not (= symbol_1536 (_ bv15 32)))))
(assert (not (not (= symbol_1534 (_ bv15 32)))))
(assert (not (not (= symbol_1532 (_ bv15 32)))))
(assert (not (not (= symbol_1530 (_ bv15 32)))))
(assert (not (not (= symbol_1528 (_ bv15 32)))))
(assert (not (not (= symbol_1526 (_ bv15 32)))))
(assert (not (not (= symbol_1524 (_ bv15 32)))))
(assert (not (not (= symbol_1523 (_ bv15 32)))))
(assert (not (not (= symbol_1521 (_ bv15 32)))))
(assert (not (not (= symbol_1519 (_ bv15 32)))))
(assert (not (not (= symbol_1517 (_ bv15 32)))))
(assert (not (not (= symbol_1515 (_ bv15 32)))))
(assert (not (not (= symbol_1513 (_ bv15 32)))))
(assert (not (not (= symbol_1511 (_ bv15 32)))))
(assert (not (not (= symbol_1509 (_ bv15 32)))))
(assert (not (not (= symbol_1507 (_ bv15 32)))))
(assert (not (not (= symbol_1505 (_ bv15 32)))))
(assert (not (not (= symbol_1503 (_ bv15 32)))))
(assert (not (not (= symbol_1501 (_ bv15 32)))))
(assert (not (not (= symbol_1499 (_ bv15 32)))))
(assert (not (not (= symbol_1497 (_ bv15 32)))))
(assert (not (not (= symbol_1496 (_ bv15 32)))))
(assert (not (not (= symbol_1493 (_ bv15 32)))))
(assert (not (not (= symbol_1491 (_ bv15 32)))))
(assert (not (not (= symbol_1489 (_ bv15 32)))))
(check-sat)